w = 18;
n = 16;
measures = [|3, 11,
|3, 10,
|5, 6,
|5, 5,
|3, 8,
|4, 6,
|3, 7,
|4, 5,
|5, 4,
|3, 6,
|4, 4,
|3, 5,
|5, 3,
|3, 4,
|4, 3,
|3, 3,
|];
initial_x = [0, 3, 6, 11, 0, 3, 7, 10, 0, 5, 8, 12, 0, 5, 8, 12];
initial_y = [0, 0, 0, 0, 11, 11, 11, 11, 19, 19, 19, 19, 25, 25, 25, 25];